NAME: cuum320.tsp
TYPE: TSP
COMMENT: User-generated TSP file
DIMENSION: 320
EDGE_WEIGHT_TYPE: EUC_2D
NODE_COORD_SECTION
1 210.0 24.0
2 25.0 307.0
3 217.0 296.0
4 260.0 256.0
5 183.0 277.0
6 104.0 175.0
7 283.0 53.0
8 8.0 26.0
9 181.0 205.0
10 232.0 113.0
11 36.0 297.0
12 184.0 151.0
13 121.0 288.0
14 111.0 61.0
15 315.0 228.0
16 265.0 253.0
17 14.0 174.0
18 57.0 215.0
19 25.0 6.0
20 269.0 144.0
21 297.0 47.0
22 195.0 281.0
23 245.0 1.0
24 309.0 232.0
25 53.0 140.0
26 59.0 182.0
27 152.0 64.0
28 161.0 26.0
29 195.0 279.0
30 260.0 270.0
31 52.0 90.0
32 223.0 120.0
33 229.0 305.0
34 217.0 242.0
35 281.0 122.0
36 211.0 148.0
37 193.0 105.0
38 201.0 292.0
39 163.0 128.0
40 245.0 120.0
41 180.0 199.0
42 192.0 14.0
43 45.0 157.0
44 196.0 162.0
45 63.0 252.0
46 190.0 272.0
47 312.0 236.0
48 284.0 258.0
49 291.0 262.0
50 221.0 133.0
51 44.0 100.0
52 98.0 126.0
53 29.0 195.0
54 154.0 94.0
55 33.0 303.0
56 247.0 172.0
57 318.0 162.0
58 251.0 7.0
59 225.0 257.0
60 18.0 198.0
61 219.0 9.0
62 309.0 162.0
63 127.0 14.0
64 161.0 302.0
65 16.0 178.0
66 138.0 53.0
67 166.0 256.0
68 187.0 170.0
69 115.0 21.0
70 225.0 51.0
71 91.0 2.0
72 221.0 240.0
73 274.0 101.0
74 250.0 219.0
75 127.0 297.0
76 40.0 130.0
77 317.0 136.0
78 190.0 50.0
79 87.0 166.0
80 305.0 13.0
81 108.0 283.0
82 286.0 232.0
83 287.0 60.0
84 6.0 102.0
85 195.0 87.0
86 256.0 241.0
87 303.0 283.0
88 100.0 109.0
89 277.0 105.0
90 267.0 285.0
91 220.0 314.0
92 37.0 137.0
93 184.0 241.0
94 162.0 199.0
95 109.0 138.0
96 109.0 208.0
97 76.0 87.0
98 145.0 52.0
99 3.0 205.0
100 21.0 217.0
101 219.0 154.0
102 172.0 188.0
103 44.0 5.0
104 64.0 153.0
105 64.0 47.0
106 140.0 126.0
107 243.0 15.0
108 2.0 265.0
109 36.0 199.0
110 27.0 152.0
111 267.0 250.0
112 59.0 26.0
113 8.0 103.0
114 58.0 235.0
115 13.0 266.0
116 198.0 168.0
117 206.0 97.0
118 108.0 261.0
119 268.0 196.0
120 141.0 282.0
121 306.0 5.0
122 220.0 36.0
123 30.0 63.0
124 159.0 16.0
125 318.0 281.0
126 294.0 239.0
127 244.0 26.0
128 133.0 270.0
129 85.0 149.0
130 216.0 21.0
131 225.0 181.0
132 306.0 75.0
133 136.0 191.0
134 28.0 54.0
135 30.0 172.0
136 137.0 271.0
137 188.0 317.0
138 135.0 317.0
139 6.0 8.0
140 140.0 274.0
141 280.0 58.0
142 64.0 271.0
143 88.0 298.0
144 162.0 305.0
145 186.0 276.0
146 42.0 122.0
147 231.0 141.0
148 203.0 183.0
149 25.0 170.0
150 79.0 84.0
151 70.0 316.0
152 229.0 22.0
153 95.0 175.0
154 105.0 70.0
155 308.0 293.0
156 292.0 124.0
157 153.0 4.0
158 46.0 100.0
159 268.0 248.0
160 57.0 30.0
161 121.0 319.0
162 171.0 190.0
163 27.0 31.0
164 84.0 210.0
165 172.0 238.0
166 146.0 201.0
167 169.0 143.0
168 287.0 128.0
169 18.0 299.0
170 17.0 95.0
171 193.0 116.0
172 80.0 175.0
173 61.0 79.0
174 111.0 240.0
175 204.0 318.0
176 129.0 240.0
177 269.0 278.0
178 176.0 266.0
179 274.0 110.0
180 217.0 94.0
181 191.0 271.0
182 271.0 134.0
183 50.0 236.0
184 301.0 184.0
185 11.0 287.0
186 120.0 319.0
187 84.0 142.0
188 111.0 8.0
189 276.0 151.0
190 294.0 156.0
191 302.0 158.0
192 249.0 4.0
193 27.0 310.0
194 13.0 218.0
195 238.0 299.0
196 223.0 261.0
197 268.0 258.0
198 114.0 285.0
199 29.0 189.0
200 100.0 75.0
201 89.0 146.0
202 11.0 311.0
203 147.0 91.0
204 21.0 141.0
205 20.0 172.0
206 281.0 250.0
207 115.0 309.0
208 223.0 15.0
209 123.0 190.0
210 61.0 303.0
211 176.0 49.0
212 83.0 241.0
213 243.0 65.0
214 205.0 132.0
215 316.0 167.0
216 60.0 202.0
217 279.0 155.0
218 260.0 166.0
219 186.0 307.0
220 261.0 182.0
221 112.0 57.0
222 294.0 57.0
223 232.0 10.0
224 290.0 204.0
225 178.0 256.0
226 118.0 230.0
227 159.0 78.0
228 75.0 148.0
229 210.0 120.0
230 238.0 227.0
231 278.0 299.0
232 169.0 263.0
233 147.0 274.0
234 93.0 211.0
235 80.0 240.0
236 165.0 293.0
237 133.0 23.0
238 167.0 57.0
239 230.0 261.0
240 252.0 194.0
241 173.0 300.0
242 179.0 147.0
243 228.0 197.0
244 71.0 22.0
245 17.0 257.0
246 311.0 227.0
247 3.0 83.0
248 21.0 245.0
249 127.0 13.0
250 316.0 185.0
251 170.0 156.0
252 91.0 288.0
253 32.0 294.0
254 170.0 254.0
255 228.0 54.0
256 92.0 173.0
257 99.0 196.0
258 224.0 83.0
259 16.0 123.0
260 121.0 281.0
261 19.0 173.0
262 172.0 230.0
263 26.0 177.0
264 319.0 225.0
265 86.0 277.0
266 140.0 105.0
267 99.0 114.0
268 140.0 29.0
269 235.0 20.0
270 90.0 219.0
271 298.0 216.0
272 64.0 92.0
273 212.0 157.0
274 251.0 6.0
275 221.0 41.0
276 238.0 126.0
277 264.0 251.0
278 37.0 197.0
279 282.0 288.0
280 5.0 154.0
281 97.0 115.0
282 82.0 203.0
283 167.0 291.0
284 101.0 138.0
285 77.0 204.0
286 278.0 225.0
287 284.0 2.0
288 174.0 209.0
289 305.0 96.0
290 223.0 174.0
291 242.0 78.0
292 87.0 176.0
293 5.0 184.0
294 313.0 211.0
295 213.0 251.0
296 240.0 60.0
297 44.0 53.0
298 314.0 249.0
299 10.0 305.0
300 151.0 51.0
301 105.0 112.0
302 118.0 153.0
303 193.0 145.0
304 163.0 111.0
305 21.0 303.0
306 33.0 124.0
307 280.0 14.0
308 40.0 125.0
309 123.0 81.0
310 57.0 30.0
311 122.0 83.0
312 55.0 274.0
313 264.0 157.0
314 300.0 252.0
315 118.0 309.0
316 199.0 99.0
317 120.0 43.0
318 84.0 236.0
319 245.0 155.0
320 268.0 285.0
EOF





